data; 

set A := 1 2 3 4;
set B := 1 2 3;

param p :=
			1	1
			2	3
			3	4
			4	5;	
param r :=
			1	9
			2	7
			3	4;	

param o: 	1	2	3	4 :=
		1	8	2	0	0
		2	3	0	5	0
		3	0	0	2	3;

end;